c SAT Generator for power-law distributed variable frequencies
c -g u -v 20 -c 91 -k 3 -p 2.750000 -b 3.200000 -f /home/schmidt/Devel/ni-kop-sat/data/ensemble/ruf20-91/ruf20-91-928 -u 1 -U 1 -s 2230993352
p cnf 20 91
-8 -17 -18 0
-4 -12 -17 0
-9 -12 15 0
-3 10 -11 0
-12 13 14 0
-6 -19 20 0
-5 12 15 0
-3 16 -19 0
-6 -10 17 0
6 13 -14 0
-11 -14 18 0
1 3 12 0
-2 8 11 0
7 -8 19 0
-1 -11 -14 0
2 5 12 0
-13 -14 -17 0
3 5 -13 0
-1 -8 -19 0
-6 -13 -19 0
-5 11 -15 0
-3 -13 -17 0
-7 -12 13 0
4 5 -16 0
5 -16 -17 0
9 12 -19 0
-7 -13 -14 0
-10 -17 -20 0
-3 16 17 0
6 7 -17 0
-9 -17 -18 0
-2 -4 -5 0
3 -15 20 0
-4 -7 -13 0
4 9 17 0
-4 -5 -20 0
-13 16 -19 0
-8 16 17 0
-4 10 -18 0
10 15 -18 0
2 -8 -10 0
10 11 13 0
7 10 -16 0
-4 -5 19 0
-10 -15 -17 0
4 13 15 0
-3 9 -15 0
-3 6 -9 0
-9 -11 19 0
1 -2 4 0
-10 -12 -14 0
12 18 19 0
-5 -16 -17 0
-10 -12 14 0
-2 -5 -15 0
7 -10 20 0
-5 17 18 0
-2 15 18 0
-2 -14 16 0
5 -8 -9 0
-4 5 -11 0
7 12 -14 0
-10 -11 -14 0
-2 -14 -16 0
3 6 15 0
13 17 18 0
-5 6 8 0
9 -10 -18 0
1 -9 15 0
-11 -17 20 0
13 14 17 0
-1 10 20 0
-1 6 8 0
14 -18 -20 0
-4 7 10 0
6 -10 17 0
-1 3 20 0
-7 16 18 0
4 -9 18 0
-14 15 16 0
6 8 -15 0
3 14 -17 0
5 13 20 0
-5 -13 -16 0
4 5 17 0
-8 -18 19 0
-6 12 -14 0
-1 12 -15 0
5 10 -12 0
-3 -5 -10 0
-9 18 -19 0
